NAME          ClpDefau  FREE
ROWS
 N  OBJROW
 L  ZMUNI1_PCT
 L  ZMUNI2_PCT
 L  ZMUNI3_PCT
 L  ZMUNI4_PCT
 L  ZMUNI5_PCT
 L  ZMUNI6_PCT
 L  ZMUNI7_PCT
 L  ZMUNI8_PCT
 L  ZMUNI9_PCT
COLUMNS
    QMUNI1 OBJROW 1.          
    QMUNI1 ZMUNI1_PCT 28784.5611  
    QMUNI1 ZMUNI2_PCT 1792.9077   
    QMUNI1 ZMUNI3_PCT 4258.5373   
    QMUNI1 ZMUNI4_PCT 3120.23163  
    QMUNI1 ZMUNI5_PCT  -22.5067   
    QMUNI1 ZMUNI6_PCT 217.6285    
    QMUNI1 ZMUNI7_PCT 1764.2975   
    QMUNI1 ZMUNI8_PCT 1386.4518   
    QMUNI1 ZMUNI9_PCT 486.1832    
    QMUNI2 OBJROW 1.          
    QMUNI2 ZMUNI1_PCT 1875.8773   
    QMUNI2 ZMUNI2_PCT 34107.2083  
    QMUNI2 ZMUNI3_PCT 2668.9529   
    QMUNI2 ZMUNI4_PCT 2816.20026  
    QMUNI2 ZMUNI5_PCT 208.8546    
    QMUNI2 ZMUNI6_PCT 281.9062    
    QMUNI2 ZMUNI7_PCT 1142.3111   
    QMUNI2 ZMUNI8_PCT 1332.6645   
    QMUNI2 ZMUNI9_PCT 1159.2865   
    QMUNI3 OBJROW 1.          
    QMUNI3 ZMUNI1_PCT 4348.1826   
    QMUNI3 ZMUNI2_PCT 2832.4127   
    QMUNI3 ZMUNI3_PCT 30414.3905  
    QMUNI3 ZMUNI4_PCT 5241.10794  
    QMUNI3 ZMUNI5_PCT 135.9939    
    QMUNI3 ZMUNI6_PCT 326.5381    
    QMUNI3 ZMUNI7_PCT 1891.7084   
    QMUNI3 ZMUNI8_PCT 1808.548    
    QMUNI3 ZMUNI9_PCT 1153.7552   
    QMUNI4 OBJROW 1.          
    QMUNI4 ZMUNI1_PCT 2866.3635   
    QMUNI4 ZMUNI2_PCT 2553.3676   
    QMUNI4 ZMUNI3_PCT 5029.869    
    QMUNI4 ZMUNI4_PCT 105326.08032
    QMUNI4 ZMUNI5_PCT  -557.8995  
    QMUNI4 ZMUNI6_PCT  -405.5023  
    QMUNI4 ZMUNI7_PCT 629.9972    
    QMUNI4 ZMUNI8_PCT 583.6487    
    QMUNI4 ZMUNI9_PCT  -130.6534  
    QMUNI5 OBJROW 1.          
    QMUNI5 ZMUNI1_PCT  -103.7598  
    QMUNI5 ZMUNI2_PCT  -190.7348  
    QMUNI5 ZMUNI3_PCT  -144.1956  
    QMUNI5 ZMUNI4_PCT  -129.79508 
    QMUNI5 ZMUNI5_PCT 33910.1791  
    QMUNI5 ZMUNI6_PCT 2058.4107   
    QMUNI5 ZMUNI7_PCT  -164.9857  
    QMUNI5 ZMUNI8_PCT  -254.631   
    QMUNI5 ZMUNI9_PCT  -393.1045  
    QMUNI6 OBJROW 1.          
    QMUNI6 ZMUNI1_PCT 383.5678    
    QMUNI6 ZMUNI2_PCT 176.0483    
    QMUNI6 ZMUNI3_PCT 299.4537    
    QMUNI6 ZMUNI4_PCT 252.15149   
    QMUNI6 ZMUNI5_PCT 2637.2909   
    QMUNI6 ZMUNI6_PCT 32156.5628  
    QMUNI6 ZMUNI7_PCT 462.3413    
    QMUNI6 ZMUNI8_PCT 248.1461    
    QMUNI6 ZMUNI9_PCT 143.0512    
    QMUNI7 OBJROW 1.          
    QMUNI7 ZMUNI1_PCT 1280.0216   
    QMUNI7 ZMUNI2_PCT 632.6676    
    QMUNI7 ZMUNI3_PCT 1081.4666   
    QMUNI7 ZMUNI4_PCT 790.30991   
    QMUNI7 ZMUNI5_PCT 131.2256    
    QMUNI7 ZMUNI6_PCT 347.9004    
    QMUNI7 ZMUNI7_PCT 29824.6383  
    QMUNI7 ZMUNI8_PCT 2120.2088   
    QMUNI7 ZMUNI9_PCT 342.5598    
    QMUNI8 OBJROW 1.          
    QMUNI8 ZMUNI1_PCT 1129.9133   
    QMUNI8 ZMUNI2_PCT 976.7533    
    QMUNI8 ZMUNI3_PCT 1144.5999   
    QMUNI8 ZMUNI4_PCT 898.26584   
    QMUNI8 ZMUNI5_PCT 38.5284     
    QMUNI8 ZMUNI6_PCT 166.7023    
    QMUNI8 ZMUNI7_PCT 2448.6542   
    QMUNI8 ZMUNI8_PCT 28205.8716  
    QMUNI8 ZMUNI9_PCT 1335.907    
    QMUNI9 OBJROW 1.          
    QMUNI9 ZMUNI1_PCT 170.1355    
    QMUNI9 ZMUNI2_PCT 446.1289    
    QMUNI9 ZMUNI3_PCT 254.8217    
    QMUNI9 ZMUNI4_PCT 233.3641    
    QMUNI9 ZMUNI5_PCT  -568.5807  
    QMUNI9 ZMUNI6_PCT  -493.4311  
    QMUNI9 ZMUNI7_PCT 40.245      
    QMUNI9 ZMUNI8_PCT 551.033     
    QMUNI9 ZMUNI9_PCT 25806.2363  
RHS
    RHS ZMUNI1_PCT 1.0425988373
    RHS ZMUNI2_PCT 0.2962824401
    RHS ZMUNI3_PCT 0.2600288798
    RHS ZMUNI4_PCT -0.034515533
    RHS ZMUNI5_PCT  -0.12957637
    RHS ZMUNI6_PCT 0.3221713603
    RHS ZMUNI7_PCT  -0.33269325
    RHS ZMUNI8_PCT  -0.44744782
    RHS ZMUNI9_PCT  -0.53973885
BOUNDS
 LO BOUND QMUNI1 -0.000871351
 UP BOUND QMUNI1      1.1e+10
 LO BOUND QMUNI2 -0.00061867 
 UP BOUND QMUNI2      1.1e+10
 LO BOUND QMUNI3 -0.000672392
 UP BOUND QMUNI3      1.1e+10
 LO BOUND QMUNI4 -0.000261603
 UP BOUND QMUNI4      1.1e+10
 LO BOUND QMUNI5 -0.000475243
 UP BOUND QMUNI5      1.1e+10
 LO BOUND QMUNI6 -0.000634835
 UP BOUND QMUNI6      1.1e+10
 LO BOUND QMUNI7 -0.0003001  
 UP BOUND QMUNI7      1.1e+10
 LO BOUND QMUNI8 -0.000414961
 UP BOUND QMUNI8      1.1e+10
 LO BOUND QMUNI9 -0.000456332
 UP BOUND QMUNI9      1.1e+10
ENDATA
